\ENCODING=ISO-8859-1
\Problem name: ilog.cplex

Maximize
 obj: 603 x(0)#0 + 907 x(1)#1 + 658 x(2)#2 + 677 x(3)#3 + 602 x(4)#4
      + 723 x(5)#5 + 560 x(6)#6 + 1075 x(7)#7 + 384 x(8)#8 + 361 x(9)#9
      + 734 x(10)#10 + 663 x(11)#11 + 493 x(12)#12 + 789 x(13)#13
      + 849 x(14)#14 + 689 x(15)#15 + 804 x(16)#16 + 955 x(17)#17
      + 887 x(18)#18 + 941 x(19)#19 + 635 x(20)#20 + 805 x(21)#21
      + 775 x(22)#22 + 508 x(23)#23 + 1028 x(24)#24 + 820 x(25)#25
      + 1167 x(26)#26 + 787 x(27)#27 + 924 x(28)#28 + 709 x(29)#29
      + 621 x(30)#30 + 799 x(31)#31 + 443 x(32)#32 + 416 x(33)#33
      + 681 x(34)#34 + 694 x(35)#35 + 1295 x(36)#36 + 623 x(37)#37
      + 741 x(38)#38 + 795 x(39)#39 + 784 x(40)#40 + 695 x(41)#41
      + 767 x(42)#42 + 751 x(43)#43 + 974 x(44)#44 + 836 x(45)#45
      + 656 x(46)#46 + 543 x(47)#47 + 498 x(48)#48 + 1149 x(49)#49
      + 815 x(50)#50 + 726 x(51)#51 + 664 x(52)#52 + 588 x(53)#53
      + 730 x(54)#54 + 844 x(55)#55 + 753 x(56)#56 + 807 x(57)#57
      + 739 x(58)#58 + 461 x(59)#59 + 844 x(60)#60 + 358 x(61)#61
      + 582 x(62)#62 + 953 x(63)#63 + 599 x(64)#64 + 1075 x(65)#65
      + 442 x(66)#66 + 552 x(67)#67 + 971 x(68)#68 + 668 x(69)#69
      + 675 x(70)#70 + 535 x(71)#71 + 1060 x(72)#72 + 748 x(73)#73
      + 547 x(74)#74 + 612 x(75)#75 + 708 x(76)#76 + 1039 x(77)#77
      + 888 x(78)#78 + 893 x(79)#79 + 759 x(80)#80 + 1050 x(81)#81
      + 555 x(82)#82 + 967 x(83)#83 + 514 x(84)#84 + 653 x(85)#85
      + 961 x(86)#86 + 766 x(87)#87 + 776 x(88)#88 + 496 x(89)#89
      + 801 x(90)#90 + 516 x(91)#91 + 942 x(92)#92 + 519 x(93)#93
      + 893 x(94)#94 + 638 x(95)#95 + 622 x(96)#96 + 939 x(97)#97
      + 875 x(98)#98 + 444 x(99)#99 + 752 x(100)#100 + 949 x(101)#101
      + 834 x(102)#102 + 602 x(103)#103 + 647 x(104)#104 + 718 x(105)#105
      + 597 x(106)#106 + 962 x(107)#107 + 706 x(108)#108 + 710 x(109)#109
      + 951 x(110)#110 + 603 x(111)#111 + 639 x(112)#112 + 560 x(113)#113
      + 798 x(114)#114 + 974 x(115)#115 + 690 x(116)#116 + 886 x(117)#117
      + 723 x(118)#118 + 1206 x(119)#119 + 746 x(120)#120 + 861 x(121)#121
      + 995 x(122)#122 + 649 x(123)#123 + 900 x(124)#124 + 896 x(125)#125
      + 603 x(126)#126 + 781 x(127)#127 + 706 x(128)#128 + 1173 x(129)#129
      + 663 x(130)#130 + 859 x(131)#131 + 849 x(132)#132 + 516 x(133)#133
      + 995 x(134)#134 + 724 x(135)#135 + 943 x(136)#136 + 933 x(137)#137
      + 659 x(138)#138 + 751 x(139)#139 + 559 x(140)#140 + 791 x(141)#141
      + 1234 x(142)#142 + 614 x(143)#143 + 827 x(144)#144 + 792 x(145)#145
      + 675 x(146)#146 + 751 x(147)#147 + 812 x(148)#148 + 711 x(149)#149
      + 724 x(150)#150 + 489 x(151)#151 + 805 x(152)#152 + 797 x(153)#153
      + 737 x(154)#154 + 619 x(155)#155 + 983 x(156)#156 + 648 x(157)#157
      + 287 x(158)#158 + 282 x(159)#159 + 604 x(160)#160 + 939 x(161)#161
      + 751 x(162)#162 + 611 x(163)#163 + 1021 x(164)#164 + 872 x(165)#165
      + 957 x(166)#166 + 966 x(167)#167 + 823 x(168)#168 + 906 x(169)#169
      + 1112 x(170)#170 + 713 x(171)#171 + 1009 x(172)#172 + 887 x(173)#173
      + 776 x(174)#174 + 650 x(175)#175 + 797 x(176)#176 + 793 x(177)#177
      + 917 x(178)#178 + 576 x(179)#179 + 729 x(180)#180 + 771 x(181)#181
      + 684 x(182)#182 + 842 x(183)#183 + 605 x(184)#184 + 965 x(185)#185
      + 739 x(186)#186 + 503 x(187)#187 + 471 x(188)#188 + 802 x(189)#189
      + 513 x(190)#190 + 835 x(191)#191 + 657 x(192)#192 + 403 x(193)#193
      + 685 x(194)#194 + 932 x(195)#195 + 737 x(196)#196 + 441 x(197)#197
      + 819 x(198)#198 + 757 x(199)#199 + 808 x(200)#200 + 564 x(201)#201
      + 419 x(202)#202 + 1040 x(203)#203 + 714 x(204)#204 + 431 x(205)#205
      + 870 x(206)#206 + 733 x(207)#207 + 496 x(208)#208 + 1146 x(209)#209
      + 800 x(210)#210 + 832 x(211)#211 + 822 x(212)#212 + 401 x(213)#213
      + 799 x(214)#214 + 854 x(215)#215 + 430 x(216)#216 + 926 x(217)#217
      + 922 x(218)#218 + 737 x(219)#219 + 522 x(220)#220 + 590 x(221)#221
      + 803 x(222)#222 + 573 x(223)#223 + 654 x(224)#224 + 755 x(225)#225
      + 981 x(226)#226 + 716 x(227)#227 + 633 x(228)#228 + 801 x(229)#229
      + 811 x(230)#230 + 458 x(231)#231 + 1175 x(232)#232 + 425 x(233)#233
      + 454 x(234)#234 + 1176 x(235)#235 + 1032 x(236)#236 + 926 x(237)#237
      + 505 x(238)#238 + 750 x(239)#239 + 843 x(240)#240 + 650 x(241)#241
      + 884 x(242)#242 + 1119 x(243)#243 + 902 x(244)#244 + 733 x(245)#245
      + 586 x(246)#246 + 881 x(247)#247 + 814 x(248)#248 + 915 x(249)#249
Subject To
 c1: 392 x(0)#0 + 713 x(1)#1 + 701 x(2)#2 + 366 x(3)#3 + 7 x(4)#4 + 241 x(5)#5
     + 356 x(6)#6 + 252 x(7)#7 + 783 x(8)#8 + 598 x(9)#9 + 822 x(10)#10
     + 205 x(11)#11 + 29 x(12)#12 + 817 x(13)#13 + 620 x(14)#14 + 743 x(15)#15
     + 857 x(16)#16 + 915 x(17)#17 + 652 x(18)#18 + 574 x(19)#19 + 853 x(20)#20
     + 372 x(21)#21 + 130 x(22)#22 + 157 x(23)#23 + 838 x(24)#24 + 756 x(25)#25
     + 838 x(26)#26 + 337 x(27)#27 + 285 x(28)#28 + 130 x(29)#29 + 620 x(30)#30
     + 531 x(31)#31 + 346 x(32)#32 + 256 x(33)#33 + 206 x(34)#34 + 841 x(35)#35
     + 772 x(36)#36 + 826 x(37)#37 + 401 x(38)#38 + 857 x(39)#39 + 35 x(40)#40
     + 691 x(41)#41 + 834 x(42)#42 + 693 x(43)#43 + 954 x(44)#44 + 54 x(45)#45
     + 207 x(46)#46 + 749 x(47)#47 + 133 x(48)#48 + 853 x(49)#49 + 109 x(50)#50
     + 367 x(51)#51 + 503 x(52)#52 + 60 x(53)#53 + 389 x(54)#54 + 759 x(55)#55
     + 48 x(56)#56 + 186 x(57)#57 + 230 x(58)#58 + 486 x(59)#59 + 944 x(60)#60
     + 829 x(61)#61 + 176 x(62)#62 + 388 x(63)#63 + 711 x(64)#64 + 898 x(65)#65
     + 605 x(66)#66 + 166 x(67)#67 + 384 x(68)#68 + 919 x(69)#69 + 72 x(70)#70
     + 373 x(71)#71 + 992 x(72)#72 + 281 x(73)#73 + 11 x(74)#74 + 476 x(75)#75
     + 59 x(76)#76 + 196 x(77)#77 + 994 x(78)#78 + 880 x(79)#79 + 929 x(80)#80
     + 790 x(81)#81 + 953 x(82)#82 + 597 x(83)#83 + 642 x(84)#84 + 938 x(85)#85
     + 942 x(86)#86 + 988 x(87)#87 + 407 x(88)#88 + 174 x(89)#89 + 630 x(90)#90
     + 710 x(91)#91 + 676 x(92)#92 + 379 x(93)#93 + 480 x(94)#94 + 999 x(95)#95
     + 663 x(96)#96 + 736 x(97)#97 + 179 x(98)#98 + 107 x(99)#99
     + 145 x(100)#100 + 853 x(101)#101 + 521 x(102)#102 + 34 x(103)#103
     + 79 x(104)#104 + 664 x(105)#105 + 681 x(106)#106 + 819 x(107)#107
     + 648 x(108)#108 + 218 x(109)#109 + 701 x(110)#110 + 769 x(111)#111
     + 723 x(112)#112 + 566 x(113)#113 + 903 x(114)#114 + 832 x(115)#115
     + 920 x(116)#116 + 967 x(117)#117 + 652 x(118)#118 + 990 x(119)#119
     + 491 x(120)#120 + 751 x(121)#121 + 959 x(122)#122 + 761 x(123)#123
     + 512 x(124)#124 + 303 x(125)#125 + 884 x(126)#126 + 828 x(127)#127
     + 450 x(128)#128 + 729 x(129)#129 + 88 x(130)#130 + 570 x(131)#131
     + 513 x(132)#132 + 286 x(133)#133 + 323 x(134)#134 + 590 x(135)#135
     + 255 x(136)#136 + 841 x(137)#137 + 51 x(138)#138 + 424 x(139)#139
     + 249 x(140)#140 + 416 x(141)#141 + 543 x(142)#142 + 640 x(143)#143
     + 765 x(144)#144 + 798 x(145)#145 + 329 x(146)#146 + 152 x(147)#147
     + 672 x(148)#148 + 194 x(149)#149 + 648 x(150)#150 + 195 x(151)#151
     + 949 x(152)#152 + 349 x(153)#153 + 16 x(154)#154 + 599 x(155)#155
     + 636 x(156)#156 + 902 x(157)#157 + 235 x(158)#158 + 627 x(159)#159
     + 160 x(160)#160 + 774 x(161)#161 + 372 x(162)#162 + 273 x(163)#163
     + 935 x(164)#164 + 354 x(165)#165 + 391 x(166)#166 + 459 x(167)#167
     + 88 x(168)#168 + 443 x(169)#169 + 746 x(170)#170 + 508 x(171)#171
     + 774 x(172)#172 + 871 x(173)#173 + 769 x(174)#174 + 309 x(175)#175
     + 214 x(176)#176 + 662 x(177)#177 + 940 x(178)#178 + 308 x(179)#179
     + 922 x(180)#180 + 148 x(181)#181 + 554 x(182)#182 + 468 x(183)#183
     + 499 x(184)#184 + 337 x(185)#185 + 482 x(186)#186 + 392 x(187)#187
     + 761 x(188)#188 + 802 x(189)#189 + 878 x(190)#190 + 276 x(191)#191
     + 418 x(192)#192 + 166 x(193)#193 + 718 x(194)#194 + 841 x(195)#195
     + 547 x(196)#196 + 280 x(197)#197 + 597 x(198)#198 + 415 x(199)#199
     + 218 x(200)#200 + 807 x(201)#201 + 269 x(202)#202 + 495 x(203)#203
     + 128 x(204)#204 + 983 x(205)#205 + 355 x(206)#206 + 488 x(207)#207
     + 463 x(208)#208 + 805 x(209)#209 + 635 x(210)#210 + 870 x(211)#211
     + 382 x(212)#212 + 212 x(213)#213 + 26 x(214)#214 + 961 x(215)#215
     + 167 x(216)#216 + 483 x(217)#217 + 149 x(218)#218 + 587 x(219)#219
     + 749 x(220)#220 + 643 x(221)#221 + 189 x(222)#222 + 783 x(223)#223
     + 455 x(224)#224 + 137 x(225)#225 + 927 x(226)#226 + 178 x(227)#227
     + 406 x(228)#228 + 304 x(229)#229 + 612 x(230)#230 + 523 x(231)#231
     + 821 x(232)#232 + 132 x(233)#233 + 237 x(234)#234 + 786 x(235)#235
     + 669 x(236)#236 + 398 x(237)#237 + 773 x(238)#238 + 945 x(239)#239
     + 510 x(240)#240 + 43 x(241)#241 + 652 x(242)#242 + 541 x(243)#243
     + 989 x(244)#244 + 19 x(245)#245 + 215 x(246)#246 + 723 x(247)#247
     + 584 x(248)#248 + 722 x(249)#249 <= 65908
 c2: 457 x(0)#0 + 538 x(1)#1 + 386 x(2)#2 + 848 x(3)#3 + 271 x(4)#4
     + 212 x(5)#5 + 271 x(6)#6 + 552 x(7)#7 + 214 x(8)#8 + 92 x(9)#9
     + 22 x(10)#10 + 219 x(11)#11 + 69 x(12)#12 + 743 x(13)#13 + 682 x(14)#14
     + 91 x(15)#15 + 914 x(16)#16 + 755 x(17)#17 + 911 x(18)#18 + 551 x(19)#19
     + 62 x(20)#20 + 576 x(21)#21 + 661 x(22)#22 + 57 x(23)#23 + 880 x(24)#24
     + 536 x(25)#25 + 598 x(26)#26 + 984 x(27)#27 + 538 x(28)#28 + 856 x(29)#29
     + 150 x(30)#30 + 390 x(31)#31 + 261 x(32)#32 + 411 x(33)#33 + 215 x(34)#34
     + 393 x(35)#35 + 797 x(36)#36 + 755 x(37)#37 + 474 x(38)#38 + 211 x(39)#39
     + 140 x(40)#40 + 207 x(41)#41 + 365 x(42)#42 + 600 x(43)#43 + 400 x(44)#44
     + 395 x(45)#45 + 120 x(46)#46 + 219 x(47)#47 + 676 x(48)#48 + 755 x(49)#49
     + 589 x(50)#50 + 959 x(51)#51 + 455 x(52)#52 + 333 x(53)#53 + 594 x(54)#54
     + 766 x(55)#55 + 854 x(56)#56 + 584 x(57)#57 + 520 x(58)#58 + 76 x(59)#59
     + 906 x(60)#60 + 361 x(61)#61 + 873 x(62)#62 + 760 x(63)#63 + 226 x(64)#64
     + 744 x(65)#65 + 396 x(66)#66 + 271 x(67)#67 + 863 x(68)#68 + 196 x(69)#69
     + 512 x(70)#70 + 313 x(71)#71 + 145 x(72)#72 + 819 x(73)#73 + 90 x(74)#74
     + 40 x(75)#75 + 764 x(76)#76 + 391 x(77)#77 + 831 x(78)#78 + 988 x(79)#79
     + 314 x(80)#80 + 882 x(81)#81 + 127 x(82)#82 + 624 x(83)#83 + 215 x(84)#84
     + 599 x(85)#85 + 223 x(86)#86 + 186 x(87)#87 + 688 x(88)#88 + 318 x(89)#89
     + 757 x(90)#90 + 581 x(91)#91 + 729 x(92)#92 + 62 x(93)#93 + 834 x(94)#94
     + 271 x(95)#95 + 736 x(96)#96 + 655 x(97)#97 + 618 x(98)#98 + 794 x(99)#99
     + 132 x(100)#100 + 911 x(101)#101 + 370 x(102)#102 + 762 x(103)#103
     + 621 x(104)#104 + 968 x(105)#105 + 309 x(106)#106 + 218 x(107)#107
     + 354 x(108)#108 + 467 x(109)#109 + 743 x(110)#110 + 39 x(111)#111
     + 965 x(112)#112 + 207 x(113)#113 + 406 x(114)#114 + 634 x(115)#115
     + 640 x(116)#116 + 280 x(117)#117 + 603 x(118)#118 + 270 x(119)#119
     + 443 x(120)#120 + 648 x(121)#121 + 765 x(122)#122 + 270 x(123)#123
     + 981 x(124)#124 + 911 x(125)#125 + 416 x(126)#126 + 228 x(127)#127
     + 982 x(128)#128 + 937 x(129)#129 + 951 x(130)#130 + 56 x(131)#131
     + 765 x(132)#132 + 171 x(133)#133 + 335 x(134)#134 + 327 x(135)#135
     + 999 x(136)#136 + 902 x(137)#137 + 823 x(138)#138 + 295 x(139)#139
     + 90 x(140)#140 + 487 x(141)#141 + 696 x(142)#142 + 411 x(143)#143
     + 949 x(144)#144 + 244 x(145)#145 + 225 x(146)#146 + 92 x(147)#147
     + 752 x(148)#148 + 175 x(149)#149 + 559 x(150)#150 + 906 x(151)#151
     + 762 x(152)#152 + 464 x(153)#153 + 686 x(154)#154 + 229 x(155)#155
     + 294 x(156)#156 + 915 x(157)#157 + 307 x(158)#158 + 174 x(159)#159
     + 341 x(160)#160 + 591 x(161)#161 + 925 x(162)#162 + 171 x(163)#163
     + 650 x(164)#164 + 306 x(165)#165 + 71 x(166)#166 + 711 x(167)#167
     + 896 x(168)#168 + 613 x(169)#169 + 350 x(170)#170 + 286 x(171)#171
     + 924 x(172)#172 + 675 x(173)#173 + 298 x(174)#174 + 313 x(175)#175
     + 161 x(176)#176 + 248 x(177)#177 + 839 x(178)#178 + 654 x(179)#179
     + 71 x(180)#180 + 443 x(181)#181 + 521 x(182)#182 + 613 x(183)#183
     + 235 x(184)#184 + 860 x(185)#185 + 122 x(186)#186 + 98 x(187)#187
     + 173 x(188)#188 + 212 x(189)#189 + 571 x(190)#190 + 749 x(191)#191
     + 533 x(192)#192 + 127 x(193)#193 + 291 x(194)#194 + 571 x(195)#195
     + 474 x(196)#196 + 2 x(197)#197 + 242 x(198)#198 + 18 x(199)#199
     + 575 x(200)#200 + 300 x(201)#201 + 604 x(202)#202 + 687 x(203)#203
     + 303 x(204)#204 + 78 x(205)#205 + 462 x(206)#206 + 888 x(207)#207
     + 914 x(208)#208 + 987 x(209)#209 + 730 x(210)#210 + 225 x(211)#211
     + 687 x(212)#212 + 70 x(213)#213 + 227 x(214)#214 + 847 x(215)#215
     + 263 x(216)#216 + 909 x(217)#217 + 592 x(218)#218 + 534 x(219)#219
     + 546 x(220)#220 + 65 x(221)#221 + 272 x(222)#222 + 298 x(223)#223
     + 693 x(224)#224 + 34 x(225)#225 + 489 x(226)#226 + 935 x(227)#227
     + 423 x(228)#228 + 309 x(229)#229 + 424 x(230)#230 + 57 x(231)#231
     + 878 x(232)#232 + 445 x(233)#233 + 216 x(234)#234 + 547 x(235)#235
     + 940 x(236)#236 + 874 x(237)#237 + 243 x(238)#238 + 913 x(239)#239
     + 400 x(240)#240 + 668 x(241)#241 + 530 x(242)#242 + 564 x(243)#243
     + 878 x(244)#244 + 398 x(245)#245 + 252 x(246)#246 + 465 x(247)#247
     + 662 x(248)#248 + 659 x(249)#249 <= 61671
 c3: 840 x(0)#0 + 976 x(1)#1 + 373 x(2)#2 + 793 x(3)#3 + 618 x(4)#4
     + 332 x(5)#5 + 70 x(6)#6 + 776 x(7)#7 + 111 x(8)#8 + 32 x(9)#9
     + 174 x(10)#10 + 633 x(11)#11 + 658 x(12)#12 + 500 x(13)#13 + 595 x(14)#14
     + 430 x(15)#15 + 506 x(16)#16 + 2 x(17)#17 + 810 x(18)#18 + 830 x(19)#19
     + 929 x(20)#20 + 331 x(21)#21 + 690 x(22)#22 + 477 x(23)#23 + 861 x(24)#24
     + 912 x(25)#25 + 956 x(26)#26 + 364 x(27)#27 + 940 x(28)#28 + 490 x(29)#29
     + 127 x(30)#30 + 902 x(31)#31 + 530 x(32)#32 + 184 x(33)#33 + 645 x(34)#34
     + 846 x(35)#35 + 818 x(36)#36 + 228 x(37)#37 + 792 x(38)#38 + 489 x(39)#39
     + 742 x(40)#40 + 877 x(41)#41 + 906 x(42)#42 + 207 x(43)#43 + 894 x(44)#44
     + 954 x(45)#45 + 94 x(46)#46 + 153 x(47)#47 + 482 x(48)#48 + 899 x(49)#49
     + 154 x(50)#50 + 305 x(51)#51 + 952 x(52)#52 + 791 x(53)#53 + 969 x(54)#54
     + 572 x(55)#55 + 732 x(56)#56 + 828 x(57)#57 + 267 x(58)#58 + 801 x(59)#59
     + 11 x(60)#60 + 115 x(61)#61 + 3 x(62)#62 + 870 x(63)#63 + 782 x(64)#64
     + 935 x(65)#65 + 83 x(66)#66 + 31 x(67)#67 + 687 x(68)#68 + 601 x(69)#69
     + 402 x(70)#70 + 125 x(71)#71 + 884 x(72)#72 + 806 x(73)#73 + 593 x(74)#74
     + 624 x(75)#75 + 622 x(76)#76 + 963 x(77)#77 + 393 x(78)#78 + 252 x(79)#79
     + 145 x(80)#80 + 942 x(81)#81 + 172 x(82)#82 + 253 x(83)#83 + 513 x(84)#84
     + 36 x(85)#85 + 605 x(86)#86 + 627 x(87)#87 + 144 x(88)#88 + 657 x(89)#89
     + 113 x(90)#90 + 827 x(91)#91 + 490 x(92)#92 + 699 x(93)#93 + 746 x(94)#94
     + 843 x(95)#95 + 941 x(96)#96 + 789 x(97)#97 + 671 x(98)#98 + 211 x(99)#99
     + 113 x(100)#100 + 164 x(101)#101 + 789 x(102)#102 + 540 x(103)#103
     + 35 x(104)#104 + 172 x(105)#105 + 172 x(106)#106 + 602 x(107)#107
     + 865 x(108)#108 + 936 x(109)#109 + 154 x(110)#110 + 809 x(111)#111
     + 413 x(112)#112 + 315 x(113)#113 + 864 x(114)#114 + 288 x(115)#115
     + 418 x(116)#116 + 50 x(117)#117 + 310 x(118)#118 + 752 x(119)#119
     + 784 x(120)#120 + 526 x(121)#121 + 830 x(122)#122 + 691 x(123)#123
     + 703 x(124)#124 + 770 x(125)#125 + 459 x(126)#126 + 237 x(127)#127
     + 501 x(128)#128 + 625 x(129)#129 + 657 x(130)#130 + 915 x(131)#131
     + 56 x(132)#132 + 564 x(133)#133 + 489 x(134)#134 + 870 x(135)#135
     + 306 x(136)#136 + 878 x(137)#137 + 379 x(138)#138 + 454 x(139)#139
     + 255 x(140)#140 + 984 x(141)#141 + 922 x(142)#142 + 646 x(143)#143
     + 360 x(144)#144 + 60 x(145)#145 + 261 x(146)#146 + 548 x(147)#147
     + 13 x(148)#148 + 682 x(149)#149 + 907 x(150)#150 + 36 x(151)#151
     + 260 x(152)#152 + 347 x(153)#153 + 788 x(154)#154 + 537 x(155)#155
     + 820 x(156)#156 + 489 x(157)#157 + 127 x(158)#158 + 515 x(159)#159
     + 416 x(160)#160 + 571 x(161)#161 + 552 x(162)#162 + 728 x(163)#163
     + 780 x(164)#164 + 386 x(165)#165 + 918 x(166)#166 + 691 x(167)#167
     + 569 x(168)#168 + 381 x(169)#169 + 909 x(170)#170 + 316 x(171)#171
     + 265 x(172)#172 + 388 x(173)#173 + 352 x(174)#174 + 564 x(175)#175
     + 817 x(176)#176 + 694 x(177)#177 + 820 x(178)#178 + 63 x(179)#179
     + 481 x(180)#180 + 179 x(181)#181 + 173 x(182)#182 + 311 x(183)#183
     + 941 x(184)#184 + 353 x(185)#185 + 81 x(186)#186 + 29 x(187)#187
     + 312 x(188)#188 + 720 x(189)#189 + 78 x(190)#190 + 583 x(191)#191
     + 93 x(192)#192 + 76 x(193)#193 + 597 x(194)#194 + 592 x(195)#195
     + 622 x(196)#196 + 613 x(197)#197 + 139 x(198)#198 + 554 x(199)#199
     + 617 x(200)#200 + 616 x(201)#201 + 27 x(202)#202 + 684 x(203)#203
     + 366 x(204)#204 + 59 x(205)#205 + 517 x(206)#206 + 107 x(207)#207
     + 536 x(208)#208 + 291 x(209)#209 + 101 x(210)#210 + 458 x(211)#211
     + 846 x(212)#212 + 262 x(213)#213 + 691 x(214)#214 + 386 x(215)#215
     + 41 x(216)#216 + 23 x(217)#217 + 70 x(218)#218 + 495 x(219)#219
     + 492 x(220)#220 + 957 x(221)#221 + 592 x(222)#222 + 320 x(223)#223
     + 629 x(224)#224 + 371 x(225)#225 + 831 x(226)#226 + 44 x(227)#227
     + 757 x(228)#228 + 629 x(229)#229 + 329 x(230)#230 + 757 x(231)#231
     + 696 x(232)#232 + 143 x(233)#233 + 957 x(234)#234 + 950 x(235)#235
     + 941 x(236)#236 + 78 x(237)#237 + 833 x(238)#238 + 260 x(239)#239
     + 958 x(240)#240 + 10 x(241)#241 + 855 x(242)#242 + 949 x(243)#243
     + 669 x(244)#244 + 282 x(245)#245 + 230 x(246)#246 + 43 x(247)#247
     + 306 x(248)#248 + 390 x(249)#249 <= 63763
 c4: 378 x(0)#0 + 87 x(1)#1 + 974 x(2)#2 + 635 x(3)#3 + 292 x(4)#4 + 117 x(5)#5
     + 574 x(6)#6 + 705 x(7)#7 + 23 x(8)#8 + 284 x(9)#9 + 897 x(10)#10
     + 755 x(11)#11 + 543 x(12)#12 + 338 x(13)#13 + 744 x(14)#14 + 235 x(15)#15
     + 954 x(16)#16 + 794 x(17)#17 + 376 x(18)#18 + 228 x(19)#19 + 131 x(20)#20
     + 749 x(21)#21 + 977 x(22)#22 + 724 x(23)#23 + 867 x(24)#24 + 648 x(25)#25
     + 812 x(26)#26 + 224 x(27)#27 + 902 x(28)#28 + 507 x(29)#29 + 399 x(30)#30
     + 37 x(31)#31 + 359 x(32)#32 + 317 x(33)#33 + 448 x(34)#34 + 583 x(35)#35
     + 915 x(36)#36 + 40 x(37)#37 + 170 x(38)#38 + 645 x(39)#39 + 973 x(40)#40
     + 32 x(41)#41 + 362 x(42)#42 + 942 x(43)#43 + 487 x(44)#44 + 11 x(45)#45
     + 384 x(46)#46 + 20 x(47)#47 + 3 x(48)#48 + 792 x(49)#49 + 127 x(50)#50
     + 925 x(51)#51 + 357 x(52)#52 + 47 x(53)#53 + 179 x(54)#54 + 393 x(55)#55
     + 417 x(56)#56 + 955 x(57)#57 + 285 x(58)#58 + 311 x(59)#59 + 771 x(60)#60
     + 50 x(61)#61 + 904 x(62)#62 + 333 x(63)#63 + 162 x(64)#64 + 289 x(65)#65
     + 440 x(66)#66 + 571 x(67)#67 + 612 x(68)#68 + 431 x(69)#69 + 344 x(70)#70
     + 775 x(71)#71 + 441 x(72)#72 + 136 x(73)#73 + 8 x(74)#74 + 847 x(75)#75
     + 511 x(76)#76 + 998 x(77)#77 + 696 x(78)#78 + 105 x(79)#79 + 656 x(80)#80
     + 343 x(81)#81 + 24 x(82)#82 + 986 x(83)#83 + 100 x(84)#84 + 834 x(85)#85
     + 835 x(86)#86 + 759 x(87)#87 + 816 x(88)#88 + 166 x(89)#89 + 95 x(90)#90
     + 95 x(91)#91 + 172 x(92)#92 + 848 x(93)#93 + 629 x(94)#94 + 429 x(95)#95
     + 438 x(96)#96 + 467 x(97)#97 + 248 x(98)#98 + 767 x(99)#99
     + 184 x(100)#100 + 76 x(101)#101 + 480 x(102)#102 + 232 x(103)#103
     + 522 x(104)#104 + 340 x(105)#105 + 300 x(106)#106 + 525 x(107)#107
     + 79 x(108)#108 + 269 x(109)#109 + 449 x(110)#110 + 418 x(111)#111
     + 888 x(112)#112 + 977 x(113)#113 + 668 x(114)#114 + 162 x(115)#115
     + 67 x(116)#116 + 765 x(117)#117 + 441 x(118)#118 + 584 x(119)#119
     + 105 x(120)#120 + 401 x(121)#121 + 858 x(122)#122 + 369 x(123)#123
     + 698 x(124)#124 + 357 x(125)#125 + 70 x(126)#126 + 30 x(127)#127
     + 329 x(128)#128 + 442 x(129)#129 + 311 x(130)#130 + 970 x(131)#131
     + 775 x(132)#132 + 501 x(133)#133 + 882 x(134)#134 + 703 x(135)#135
     + 969 x(136)#136 + 676 x(137)#137 + 236 x(138)#138 + 665 x(139)#139
     + x(140)#140 + 230 x(141)#141 + 865 x(142)#142 + 440 x(143)#143
     + 12 x(144)#144 + 813 x(145)#145 + 500 x(146)#146 + 142 x(147)#147
     + 376 x(148)#148 + 474 x(149)#149 + 413 x(150)#150 + 716 x(151)#151
     + 356 x(152)#152 + 908 x(153)#153 + 726 x(154)#154 + 788 x(155)#155
     + 213 x(156)#156 + 240 x(157)#157 + 180 x(158)#158 + 87 x(159)#159
     + 476 x(160)#160 + 96 x(161)#161 + 838 x(162)#162 + 452 x(163)#163
     + 409 x(164)#164 + 443 x(165)#165 + 614 x(166)#166 + 125 x(167)#167
     + 405 x(168)#168 + 304 x(169)#169 + 658 x(170)#170 + 426 x(171)#171
     + 803 x(172)#172 + 34 x(173)#173 + 858 x(174)#174 + 666 x(175)#175
     + 300 x(176)#176 + 794 x(177)#177 + 31 x(178)#178 + 477 x(179)#179
     + 260 x(180)#180 + 568 x(181)#181 + 624 x(182)#182 + 482 x(183)#183
     + 136 x(184)#184 + 527 x(185)#185 + 460 x(186)#186 + 713 x(187)#187
     + 300 x(188)#188 + 603 x(189)#189 + 62 x(190)#190 + 640 x(191)#191
     + 87 x(192)#192 + 971 x(193)#193 + 875 x(194)#194 + 118 x(195)#195
     + 525 x(196)#196 + 383 x(197)#197 + 357 x(198)#198 + 754 x(199)#199
     + 112 x(200)#200 + 744 x(201)#201 + 477 x(202)#202 + 601 x(203)#203
     + 589 x(204)#204 + 810 x(205)#205 + 795 x(206)#206 + 376 x(207)#207
     + 55 x(208)#208 + 994 x(209)#209 + 77 x(210)#210 + 424 x(211)#211
     + 63 x(212)#212 + 399 x(213)#213 + 865 x(214)#214 + 531 x(215)#215
     + 278 x(216)#216 + 922 x(217)#217 + 890 x(218)#218 + 599 x(219)#219
     + 120 x(220)#220 + 597 x(221)#221 + 348 x(222)#222 + 514 x(223)#223
     + 793 x(224)#224 + 669 x(225)#225 + 776 x(226)#226 + 808 x(227)#227
     + 444 x(228)#228 + 543 x(229)#229 + 782 x(230)#230 + 396 x(231)#231
     + 936 x(232)#232 + 340 x(233)#233 + 142 x(234)#234 + 381 x(235)#235
     + 577 x(236)#236 + 660 x(237)#237 + 196 x(238)#238 + 403 x(239)#239
     + 311 x(240)#240 + 843 x(241)#241 + 295 x(242)#242 + 870 x(243)#243
     + 544 x(244)#244 + 526 x(245)#245 + 920 x(246)#246 + 61 x(247)#247
     + 110 x(248)#248 + 652 x(249)#249 <= 59793
 c5: 618 x(0)#0 + 143 x(1)#1 + 249 x(2)#2 + 45 x(3)#3 + 518 x(4)#4 + 780 x(5)#5
     + 795 x(6)#6 + 916 x(7)#7 + 732 x(8)#8 + 224 x(9)#9 + 830 x(10)#10
     + 820 x(11)#11 + 249 x(12)#12 + 109 x(13)#13 + 221 x(14)#14 + 99 x(15)#15
     + 475 x(16)#16 + 126 x(17)#17 + 933 x(18)#18 + 897 x(19)#19 + 109 x(20)#20
     + 131 x(21)#21 + 897 x(22)#22 + 367 x(23)#23 + 411 x(24)#24 + 639 x(25)#25
     + 344 x(26)#26 + 255 x(27)#27 + 493 x(28)#28 + 291 x(29)#29 + 224 x(30)#30
     + 103 x(31)#31 + 619 x(32)#32 + 672 x(33)#33 + 374 x(34)#34 + 285 x(35)#35
     + 813 x(36)#36 + 599 x(37)#37 + 21 x(38)#38 + 34 x(39)#39 + 239 x(40)#40
     + 777 x(41)#41 + 762 x(42)#42 + 158 x(43)#43 + 806 x(44)#44 + 501 x(45)#45
     + 809 x(46)#46 + 551 x(47)#47 + 70 x(48)#48 + 669 x(49)#49 + 633 x(50)#50
     + 113 x(51)#51 + 199 x(52)#52 + 191 x(53)#53 + 376 x(54)#54 + 180 x(55)#55
     + 459 x(56)#56 + 492 x(57)#57 + 215 x(58)#58 + 328 x(59)#59 + 208 x(60)#60
     + 219 x(61)#61 + 243 x(62)#62 + 786 x(63)#63 + 173 x(64)#64 + 683 x(65)#65
     + 65 x(66)#66 + 323 x(67)#67 + 391 x(68)#68 + 378 x(69)#69 + 198 x(70)#70
     + 701 x(71)#71 + 633 x(72)#72 + 40 x(73)#73 + 969 x(74)#74 + 405 x(75)#75
     + 957 x(76)#76 + 267 x(77)#77 + 802 x(78)#78 + 118 x(79)#79 + 126 x(80)#80
     + 169 x(81)#81 + 607 x(82)#82 + 804 x(83)#83 + 352 x(84)#84 + 303 x(85)#85
     + 570 x(86)#86 + 259 x(87)#87 + 774 x(88)#88 + 284 x(89)#89 + 556 x(90)#90
     + 3 x(91)#91 + 681 x(92)#92 + 397 x(93)#93 + 984 x(94)#94 + 500 x(95)#95
     + 97 x(96)#96 + 71 x(97)#97 + 303 x(98)#98 + 217 x(99)#99 + 870 x(100)#100
     + 614 x(101)#101 + 479 x(102)#102 + 958 x(103)#103 + 555 x(104)#104
     + 759 x(105)#105 + 755 x(106)#106 + 921 x(107)#107 + 127 x(108)#108
     + 815 x(109)#109 + 568 x(110)#110 + 586 x(111)#111 + 147 x(112)#112
     + 491 x(113)#113 + 125 x(114)#114 + 746 x(115)#115 + 914 x(116)#116
     + 436 x(117)#117 + 568 x(118)#118 + 940 x(119)#119 + 836 x(120)#120
     + 112 x(121)#121 + 648 x(122)#122 + 510 x(123)#123 + 449 x(124)#124
     + 162 x(125)#125 + 598 x(126)#126 + 479 x(127)#127 + 350 x(128)#128
     + 900 x(129)#129 + 187 x(130)#130 + 693 x(131)#131 + 321 x(132)#132
     + 282 x(133)#133 + 888 x(134)#134 + 901 x(135)#135 + 715 x(136)#136
     + 542 x(137)#137 + 375 x(138)#138 + 810 x(139)#139 + 731 x(140)#140
     + 642 x(141)#141 + 973 x(142)#142 + 329 x(143)#143 + 477 x(144)#144
     + 202 x(145)#145 + 572 x(146)#146 + 922 x(147)#147 + 148 x(148)#148
     + 645 x(149)#149 + 954 x(150)#150 + 383 x(151)#151 + 589 x(152)#152
     + 167 x(153)#153 + 419 x(154)#154 + 290 x(155)#155 + 503 x(156)#156
     + 169 x(157)#157 + 199 x(158)#158 + 9 x(159)#159 + 123 x(160)#160
     + 171 x(161)#161 + 155 x(162)#162 + 992 x(163)#163 + 968 x(164)#164
     + 446 x(165)#165 + 336 x(166)#166 + 522 x(167)#167 + 899 x(168)#168
     + 468 x(169)#169 + 662 x(170)#170 + 383 x(171)#171 + 337 x(172)#172
     + 28 x(173)#173 + 143 x(174)#174 + 549 x(175)#175 + 460 x(176)#176
     + 198 x(177)#177 + 283 x(178)#178 + 294 x(179)#179 + 311 x(180)#180
     + 699 x(181)#181 + 343 x(182)#182 + 645 x(183)#183 + 657 x(184)#184
     + 882 x(185)#185 + 140 x(186)#186 + 528 x(187)#187 + 523 x(188)#188
     + 322 x(189)#189 + 161 x(190)#190 + 739 x(191)#191 + 754 x(192)#192
     + 283 x(193)#193 + 600 x(194)#194 + 795 x(195)#195 + 795 x(196)#196
     + 419 x(197)#197 + 841 x(198)#198 + 405 x(199)#199 + 730 x(200)#200
     + 249 x(201)#201 + 96 x(202)#202 + 930 x(203)#203 + 201 x(204)#204
     + 35 x(205)#205 + 239 x(206)#206 + 572 x(207)#207 + 121 x(208)#208
     + 848 x(209)#209 + 404 x(210)#210 + 565 x(211)#211 + 809 x(212)#212
     + 989 x(213)#213 + 312 x(214)#214 + 68 x(215)#215 + 897 x(216)#216
     + 16 x(217)#217 + 501 x(218)#218 + 846 x(219)#219 + 109 x(220)#220
     + 310 x(221)#221 + 892 x(222)#222 + 909 x(223)#223 + 114 x(224)#224
     + 805 x(225)#225 + 257 x(226)#226 + 292 x(227)#227 + 171 x(228)#228
     + 600 x(229)#229 + 376 x(230)#230 + 494 x(231)#231 + 600 x(232)#232
     + 534 x(233)#233 + 573 x(234)#234 + 946 x(235)#235 + 339 x(236)#236
     + 746 x(237)#237 + 380 x(238)#238 + 855 x(239)#239 + 714 x(240)#240
     + 688 x(241)#241 + 492 x(242)#242 + 879 x(243)#243 + 508 x(244)#244
     + 156 x(245)#245 + 5 x(246)#246 + 661 x(247)#247 + 772 x(248)#248
     + 570 x(249)#249 <= 59747
Bounds
 0 <= x(0)#0 <= 1
 0 <= x(1)#1 <= 1
 0 <= x(2)#2 <= 1
 0 <= x(3)#3 <= 1
 0 <= x(4)#4 <= 1
 0 <= x(5)#5 <= 1
 0 <= x(6)#6 <= 1
 0 <= x(7)#7 <= 1
 0 <= x(8)#8 <= 1
 0 <= x(9)#9 <= 1
 0 <= x(10)#10 <= 1
 0 <= x(11)#11 <= 1
 0 <= x(12)#12 <= 1
 0 <= x(13)#13 <= 1
 0 <= x(14)#14 <= 1
 0 <= x(15)#15 <= 1
 0 <= x(16)#16 <= 1
 0 <= x(17)#17 <= 1
 0 <= x(18)#18 <= 1
 0 <= x(19)#19 <= 1
 0 <= x(20)#20 <= 1
 0 <= x(21)#21 <= 1
 0 <= x(22)#22 <= 1
 0 <= x(23)#23 <= 1
 0 <= x(24)#24 <= 1
 0 <= x(25)#25 <= 1
 0 <= x(26)#26 <= 1
 0 <= x(27)#27 <= 1
 0 <= x(28)#28 <= 1
 0 <= x(29)#29 <= 1
 0 <= x(30)#30 <= 1
 0 <= x(31)#31 <= 1
 0 <= x(32)#32 <= 1
 0 <= x(33)#33 <= 1
 0 <= x(34)#34 <= 1
 0 <= x(35)#35 <= 1
 0 <= x(36)#36 <= 1
 0 <= x(37)#37 <= 1
 0 <= x(38)#38 <= 1
 0 <= x(39)#39 <= 1
 0 <= x(40)#40 <= 1
 0 <= x(41)#41 <= 1
 0 <= x(42)#42 <= 1
 0 <= x(43)#43 <= 1
 0 <= x(44)#44 <= 1
 0 <= x(45)#45 <= 1
 0 <= x(46)#46 <= 1
 0 <= x(47)#47 <= 1
 0 <= x(48)#48 <= 1
 0 <= x(49)#49 <= 1
 0 <= x(50)#50 <= 1
 0 <= x(51)#51 <= 1
 0 <= x(52)#52 <= 1
 0 <= x(53)#53 <= 1
 0 <= x(54)#54 <= 1
 0 <= x(55)#55 <= 1
 0 <= x(56)#56 <= 1
 0 <= x(57)#57 <= 1
 0 <= x(58)#58 <= 1
 0 <= x(59)#59 <= 1
 0 <= x(60)#60 <= 1
 0 <= x(61)#61 <= 1
 0 <= x(62)#62 <= 1
 0 <= x(63)#63 <= 1
 0 <= x(64)#64 <= 1
 0 <= x(65)#65 <= 1
 0 <= x(66)#66 <= 1
 0 <= x(67)#67 <= 1
 0 <= x(68)#68 <= 1
 0 <= x(69)#69 <= 1
 0 <= x(70)#70 <= 1
 0 <= x(71)#71 <= 1
 0 <= x(72)#72 <= 1
 0 <= x(73)#73 <= 1
 0 <= x(74)#74 <= 1
 0 <= x(75)#75 <= 1
 0 <= x(76)#76 <= 1
 0 <= x(77)#77 <= 1
 0 <= x(78)#78 <= 1
 0 <= x(79)#79 <= 1
 0 <= x(80)#80 <= 1
 0 <= x(81)#81 <= 1
 0 <= x(82)#82 <= 1
 0 <= x(83)#83 <= 1
 0 <= x(84)#84 <= 1
 0 <= x(85)#85 <= 1
 0 <= x(86)#86 <= 1
 0 <= x(87)#87 <= 1
 0 <= x(88)#88 <= 1
 0 <= x(89)#89 <= 1
 0 <= x(90)#90 <= 1
 0 <= x(91)#91 <= 1
 0 <= x(92)#92 <= 1
 0 <= x(93)#93 <= 1
 0 <= x(94)#94 <= 1
 0 <= x(95)#95 <= 1
 0 <= x(96)#96 <= 1
 0 <= x(97)#97 <= 1
 0 <= x(98)#98 <= 1
 0 <= x(99)#99 <= 1
 0 <= x(100)#100 <= 1
 0 <= x(101)#101 <= 1
 0 <= x(102)#102 <= 1
 0 <= x(103)#103 <= 1
 0 <= x(104)#104 <= 1
 0 <= x(105)#105 <= 1
 0 <= x(106)#106 <= 1
 0 <= x(107)#107 <= 1
 0 <= x(108)#108 <= 1
 0 <= x(109)#109 <= 1
 0 <= x(110)#110 <= 1
 0 <= x(111)#111 <= 1
 0 <= x(112)#112 <= 1
 0 <= x(113)#113 <= 1
 0 <= x(114)#114 <= 1
 0 <= x(115)#115 <= 1
 0 <= x(116)#116 <= 1
 0 <= x(117)#117 <= 1
 0 <= x(118)#118 <= 1
 0 <= x(119)#119 <= 1
 0 <= x(120)#120 <= 1
 0 <= x(121)#121 <= 1
 0 <= x(122)#122 <= 1
 0 <= x(123)#123 <= 1
 0 <= x(124)#124 <= 1
 0 <= x(125)#125 <= 1
 0 <= x(126)#126 <= 1
 0 <= x(127)#127 <= 1
 0 <= x(128)#128 <= 1
 0 <= x(129)#129 <= 1
 0 <= x(130)#130 <= 1
 0 <= x(131)#131 <= 1
 0 <= x(132)#132 <= 1
 0 <= x(133)#133 <= 1
 0 <= x(134)#134 <= 1
 0 <= x(135)#135 <= 1
 0 <= x(136)#136 <= 1
 0 <= x(137)#137 <= 1
 0 <= x(138)#138 <= 1
 0 <= x(139)#139 <= 1
 0 <= x(140)#140 <= 1
 0 <= x(141)#141 <= 1
 0 <= x(142)#142 <= 1
 0 <= x(143)#143 <= 1
 0 <= x(144)#144 <= 1
 0 <= x(145)#145 <= 1
 0 <= x(146)#146 <= 1
 0 <= x(147)#147 <= 1
 0 <= x(148)#148 <= 1
 0 <= x(149)#149 <= 1
 0 <= x(150)#150 <= 1
 0 <= x(151)#151 <= 1
 0 <= x(152)#152 <= 1
 0 <= x(153)#153 <= 1
 0 <= x(154)#154 <= 1
 0 <= x(155)#155 <= 1
 0 <= x(156)#156 <= 1
 0 <= x(157)#157 <= 1
 0 <= x(158)#158 <= 1
 0 <= x(159)#159 <= 1
 0 <= x(160)#160 <= 1
 0 <= x(161)#161 <= 1
 0 <= x(162)#162 <= 1
 0 <= x(163)#163 <= 1
 0 <= x(164)#164 <= 1
 0 <= x(165)#165 <= 1
 0 <= x(166)#166 <= 1
 0 <= x(167)#167 <= 1
 0 <= x(168)#168 <= 1
 0 <= x(169)#169 <= 1
 0 <= x(170)#170 <= 1
 0 <= x(171)#171 <= 1
 0 <= x(172)#172 <= 1
 0 <= x(173)#173 <= 1
 0 <= x(174)#174 <= 1
 0 <= x(175)#175 <= 1
 0 <= x(176)#176 <= 1
 0 <= x(177)#177 <= 1
 0 <= x(178)#178 <= 1
 0 <= x(179)#179 <= 1
 0 <= x(180)#180 <= 1
 0 <= x(181)#181 <= 1
 0 <= x(182)#182 <= 1
 0 <= x(183)#183 <= 1
 0 <= x(184)#184 <= 1
 0 <= x(185)#185 <= 1
 0 <= x(186)#186 <= 1
 0 <= x(187)#187 <= 1
 0 <= x(188)#188 <= 1
 0 <= x(189)#189 <= 1
 0 <= x(190)#190 <= 1
 0 <= x(191)#191 <= 1
 0 <= x(192)#192 <= 1
 0 <= x(193)#193 <= 1
 0 <= x(194)#194 <= 1
 0 <= x(195)#195 <= 1
 0 <= x(196)#196 <= 1
 0 <= x(197)#197 <= 1
 0 <= x(198)#198 <= 1
 0 <= x(199)#199 <= 1
 0 <= x(200)#200 <= 1
 0 <= x(201)#201 <= 1
 0 <= x(202)#202 <= 1
 0 <= x(203)#203 <= 1
 0 <= x(204)#204 <= 1
 0 <= x(205)#205 <= 1
 0 <= x(206)#206 <= 1
 0 <= x(207)#207 <= 1
 0 <= x(208)#208 <= 1
 0 <= x(209)#209 <= 1
 0 <= x(210)#210 <= 1
 0 <= x(211)#211 <= 1
 0 <= x(212)#212 <= 1
 0 <= x(213)#213 <= 1
 0 <= x(214)#214 <= 1
 0 <= x(215)#215 <= 1
 0 <= x(216)#216 <= 1
 0 <= x(217)#217 <= 1
 0 <= x(218)#218 <= 1
 0 <= x(219)#219 <= 1
 0 <= x(220)#220 <= 1
 0 <= x(221)#221 <= 1
 0 <= x(222)#222 <= 1
 0 <= x(223)#223 <= 1
 0 <= x(224)#224 <= 1
 0 <= x(225)#225 <= 1
 0 <= x(226)#226 <= 1
 0 <= x(227)#227 <= 1
 0 <= x(228)#228 <= 1
 0 <= x(229)#229 <= 1
 0 <= x(230)#230 <= 1
 0 <= x(231)#231 <= 1
 0 <= x(232)#232 <= 1
 0 <= x(233)#233 <= 1
 0 <= x(234)#234 <= 1
 0 <= x(235)#235 <= 1
 0 <= x(236)#236 <= 1
 0 <= x(237)#237 <= 1
 0 <= x(238)#238 <= 1
 0 <= x(239)#239 <= 1
 0 <= x(240)#240 <= 1
 0 <= x(241)#241 <= 1
 0 <= x(242)#242 <= 1
 0 <= x(243)#243 <= 1
 0 <= x(244)#244 <= 1
 0 <= x(245)#245 <= 1
 0 <= x(246)#246 <= 1
 0 <= x(247)#247 <= 1
 0 <= x(248)#248 <= 1
 0 <= x(249)#249 <= 1
Generals
 x(0)#0  x(1)#1  x(2)#2  x(3)#3  x(4)#4  x(5)#5  x(6)#6  x(7)#7  x(8)#8 
 x(9)#9  x(10)#10  x(11)#11  x(12)#12  x(13)#13  x(14)#14  x(15)#15  x(16)#16 
 x(17)#17  x(18)#18  x(19)#19  x(20)#20  x(21)#21  x(22)#22  x(23)#23 
 x(24)#24  x(25)#25  x(26)#26  x(27)#27  x(28)#28  x(29)#29  x(30)#30 
 x(31)#31  x(32)#32  x(33)#33  x(34)#34  x(35)#35  x(36)#36  x(37)#37 
 x(38)#38  x(39)#39  x(40)#40  x(41)#41  x(42)#42  x(43)#43  x(44)#44 
 x(45)#45  x(46)#46  x(47)#47  x(48)#48  x(49)#49  x(50)#50  x(51)#51 
 x(52)#52  x(53)#53  x(54)#54  x(55)#55  x(56)#56  x(57)#57  x(58)#58 
 x(59)#59  x(60)#60  x(61)#61  x(62)#62  x(63)#63  x(64)#64  x(65)#65 
 x(66)#66  x(67)#67  x(68)#68  x(69)#69  x(70)#70  x(71)#71  x(72)#72 
 x(73)#73  x(74)#74  x(75)#75  x(76)#76  x(77)#77  x(78)#78  x(79)#79 
 x(80)#80  x(81)#81  x(82)#82  x(83)#83  x(84)#84  x(85)#85  x(86)#86 
 x(87)#87  x(88)#88  x(89)#89  x(90)#90  x(91)#91  x(92)#92  x(93)#93 
 x(94)#94  x(95)#95  x(96)#96  x(97)#97  x(98)#98  x(99)#99  x(100)#100 
 x(101)#101  x(102)#102  x(103)#103  x(104)#104  x(105)#105  x(106)#106 
 x(107)#107  x(108)#108  x(109)#109  x(110)#110  x(111)#111  x(112)#112 
 x(113)#113  x(114)#114  x(115)#115  x(116)#116  x(117)#117  x(118)#118 
 x(119)#119  x(120)#120  x(121)#121  x(122)#122  x(123)#123  x(124)#124 
 x(125)#125  x(126)#126  x(127)#127  x(128)#128  x(129)#129  x(130)#130 
 x(131)#131  x(132)#132  x(133)#133  x(134)#134  x(135)#135  x(136)#136 
 x(137)#137  x(138)#138  x(139)#139  x(140)#140  x(141)#141  x(142)#142 
 x(143)#143  x(144)#144  x(145)#145  x(146)#146  x(147)#147  x(148)#148 
 x(149)#149  x(150)#150  x(151)#151  x(152)#152  x(153)#153  x(154)#154 
 x(155)#155  x(156)#156  x(157)#157  x(158)#158  x(159)#159  x(160)#160 
 x(161)#161  x(162)#162  x(163)#163  x(164)#164  x(165)#165  x(166)#166 
 x(167)#167  x(168)#168  x(169)#169  x(170)#170  x(171)#171  x(172)#172 
 x(173)#173  x(174)#174  x(175)#175  x(176)#176  x(177)#177  x(178)#178 
 x(179)#179  x(180)#180  x(181)#181  x(182)#182  x(183)#183  x(184)#184 
 x(185)#185  x(186)#186  x(187)#187  x(188)#188  x(189)#189  x(190)#190 
 x(191)#191  x(192)#192  x(193)#193  x(194)#194  x(195)#195  x(196)#196 
 x(197)#197  x(198)#198  x(199)#199  x(200)#200  x(201)#201  x(202)#202 
 x(203)#203  x(204)#204  x(205)#205  x(206)#206  x(207)#207  x(208)#208 
 x(209)#209  x(210)#210  x(211)#211  x(212)#212  x(213)#213  x(214)#214 
 x(215)#215  x(216)#216  x(217)#217  x(218)#218  x(219)#219  x(220)#220 
 x(221)#221  x(222)#222  x(223)#223  x(224)#224  x(225)#225  x(226)#226 
 x(227)#227  x(228)#228  x(229)#229  x(230)#230  x(231)#231  x(232)#232 
 x(233)#233  x(234)#234  x(235)#235  x(236)#236  x(237)#237  x(238)#238 
 x(239)#239  x(240)#240  x(241)#241  x(242)#242  x(243)#243  x(244)#244 
 x(245)#245  x(246)#246  x(247)#247  x(248)#248  x(249)#249 
End
